[3J[H[2J<> ARGUMENT COUNT
<0>  ./nonlinsol.py
<1>  objex.py
Couenne 0.5.8 -- an Open-Source solver for Mixed Integer Nonlinear Optimization
Mailing list: couenne@list.coin-or.org
Instructions: http://www.coin-or.org/Couenne
couenne: 
ANALYSIS TEST: Couenne: new cutoff value -1.2792968750e-01 (0.011049 seconds)
NLP0012I 
              Num      Status      Obj             It       time                 Location
NLP0014I             1         OPT -0.12792969       10 0.015452
Loaded instance "/tmp/tmpve5wkuea.pyomo.nl"
Constraints:            0
Variables:              2 (0 integer)
Auxiliaries:           26 (0 integer)

Coin0506I Presolve 26 (-13) rows, 15 (-13) columns and 73 (-21) elements
Clp0006I 0  Obj -0.23535156 Primal inf 88.695764 (13)
Clp0006I 15  Obj -0.23535156
Clp0000I Optimal - objective value -0.23535156
Clp0032I Optimal objective -0.2353515625 - 15 iterations time 0.002, Presolve 0.00
Clp0000I Optimal - objective value -0.23535156
NLP Heuristic: NLP0014I             2         OPT -0.17698549        9 0.015161
Couenne: new cutoff value -1.7698548533e-01 (0.048087 seconds)
solution found, obj. -0.176985
Cbc0012I Integer solution of -0.17698549 found by Couenne Rounding NLP after 0 iterations and 0 nodes (0.02 seconds)
Clp0000I Optimal - objective value -0.23535156
Optimality Based BT: 0 improved bounds
Probing: 6 improved bounds
NLP Heuristic: no solution.
Cbc0031I 1 added rows had average density of 2
Cbc0013I At root node, 1 cuts changed objective from -0.23535156 to -0.23535156 in 2 passes
Cbc0014I Cut generator 0 (Couenne convexifier cuts) - 2 row cuts average 2.0 elements, 15 column cuts (15 active)
Cbc0010I After 0 nodes, 1 on tree, -0.17698549 best solution, best possible -0.23535156 (0.07 seconds)
Optimality Based BT: 4 improved bounds
Optimality Based BT: 3 improved bounds
Optimality Based BT: 2 improved bounds
Optimality Based BT: 2 improved bounds
Optimality Based BT: 6 improved bounds
Optimality Based BT: 3 improved bounds
Optimality Based BT: 3 improved bounds
Optimality Based BT: 2 improved bounds
Optimality Based BT: 3 improved bounds
Optimality Based BT: 2 improved bounds
Optimality Based BT: 3 improved bounds
Optimality Based BT: 1 improved bounds
Optimality Based BT: 3 improved bounds
Cbc0010I After 100 nodes, 29 on tree, -0.17698549 best solution, best possible -0.23535156 (1.09 seconds)
Optimality Based BT: 8 improved bounds
Optimality Based BT: 3 improved bounds
Cbc0010I After 200 nodes, 48 on tree, -0.17698549 best solution, best possible -0.23446851 (1.61 seconds)
Optimality Based BT: 3 improved bounds
Cbc0010I After 300 nodes, 67 on tree, -0.17698549 best solution, best possible -0.23337048 (1.97 seconds)
Cbc0010I After 400 nodes, 81 on tree, -0.17698549 best solution, best possible -0.23129759 (2.39 seconds)
Cbc0010I After 500 nodes, 97 on tree, -0.17698549 best solution, best possible -0.22987486 (2.84 seconds)
Optimality Based BT: 7 improved bounds
Cbc0010I After 600 nodes, 105 on tree, -0.17698549 best solution, best possible -0.22692357 (3.20 seconds)
Optimality Based BT: 0 improved bounds
Optimality Based BT: 3 improved bounds
Cbc0010I After 700 nodes, 115 on tree, -0.17698549 best solution, best possible -0.22416373 (3.61 seconds)
Cbc0010I After 800 nodes, 131 on tree, -0.17698549 best solution, best possible -0.22048783 (3.96 seconds)
Cbc0010I After 900 nodes, 138 on tree, -0.17698549 best solution, best possible -0.21425084 (4.33 seconds)
Optimality Based BT: 0 improved bounds
Cbc0010I After 1000 nodes, 142 on tree, -0.17698549 best solution, best possible -0.20634978 (4.69 seconds)
Cbc0010I After 1100 nodes, 143 on tree, -0.17698549 best solution, best possible -0.18749121 (5.05 seconds)
Cbc0010I After 1200 nodes, 159 on tree, -0.17698549 best solution, best possible -0.18538167 (5.43 seconds)
Cbc0010I After 1300 nodes, 172 on tree, -0.17698549 best solution, best possible -0.18342438 (5.79 seconds)
Cbc0010I After 1400 nodes, 177 on tree, -0.17698549 best solution, best possible -0.18175592 (6.15 seconds)
Cbc0010I After 1500 nodes, 184 on tree, -0.17698549 best solution, best possible -0.18059143 (6.49 seconds)
Cbc0010I After 1600 nodes, 177 on tree, -0.17698549 best solution, best possible -0.17980561 (6.82 seconds)
Cbc0010I After 1700 nodes, 175 on tree, -0.17698549 best solution, best possible -0.17929953 (7.15 seconds)
Cbc0010I After 1800 nodes, 168 on tree, -0.17698549 best solution, best possible -0.17874922 (7.49 seconds)
Cbc0010I After 1900 nodes, 180 on tree, -0.17698549 best solution, best possible -0.17852974 (7.82 seconds)
Cbc0010I After 2000 nodes, 181 on tree, -0.17698549 best solution, best possible -0.17830511 (8.16 seconds)
Cbc0010I After 2100 nodes, 178 on tree, -0.17698549 best solution, best possible -0.17792083 (8.45 seconds)
Cbc0010I After 2200 nodes, 160 on tree, -0.17698549 best solution, best possible -0.17765563 (8.72 seconds)
Cbc0010I After 2300 nodes, 150 on tree, -0.17698549 best solution, best possible -0.17747327 (9.00 seconds)
Cbc0010I After 2400 nodes, 148 on tree, -0.17698549 best solution, best possible -0.17733528 (9.29 seconds)
Cbc0010I After 2500 nodes, 144 on tree, -0.17698549 best solution, best possible -0.17722794 (9.59 seconds)
Cbc0010I After 2600 nodes, 151 on tree, -0.17698549 best solution, best possible -0.17717902 (9.90 seconds)
Cbc0010I After 2700 nodes, 150 on tree, -0.17698549 best solution, best possible -0.17712408 (10.20 seconds)
Cbc0010I After 2800 nodes, 151 on tree, -0.17698549 best solution, best possible -0.17709936 (10.50 seconds)
Cbc0010I After 2900 nodes, 146 on tree, -0.17698549 best solution, best possible -0.17707509 (10.77 seconds)
Cbc0010I After 3000 nodes, 134 on tree, -0.17698549 best solution, best possible -0.1770635 (11.05 seconds)
Cbc0010I After 3100 nodes, 124 on tree, -0.17698549 best solution, best possible -0.1770454 (11.34 seconds)
Cbc0010I After 3200 nodes, 111 on tree, -0.17698549 best solution, best possible -0.17703 (11.62 seconds)
Cbc0010I After 3300 nodes, 93 on tree, -0.17698549 best solution, best possible -0.17701721 (11.87 seconds)
Cbc0010I After 3400 nodes, 66 on tree, -0.17698549 best solution, best possible -0.1770086 (12.13 seconds)
Cbc0010I After 3500 nodes, 33 on tree, -0.17698549 best solution, best possible -0.17699946 (12.38 seconds)
Cbc0001I Search completed - best objective -0.1769854853329207, took 26558 iterations and 3572 nodes (12.51 seconds)
Cbc0035I Maximum depth 27, 0 variables fixed on reduced cost

 	"Finished"

Linearization cuts added at root node:         39
Linearization cuts added in total:             39  (separation time: 0.000408s)
Total solve time:                         12.5159s (12.5159s in branch-and-bound)
Lower bound:                            -0.176985
Upper bound:                            -0.176985  (gap: 0.00%)
Branch-and-bound nodes:                      3572
Performance of                           FBBT:	   0.495577s,     5955 runs. fix:  0.0022482 shrnk:   0.397157 ubd:          0 2ubd:          0 infeas:         83
Performance of                           OBBT:	   0.151852s,       21 runs. fix:          0 shrnk:    2.19616 ubd:          0 2ubd:          0 infeas:          2
Model unknown

  Variables:
    s : Nonnegative
        Size=1, Index=None
        Key  : Lower : Value              : Upper             : Fixed : Stale : Domain
        None :     0 : 0.4616574756034856 : 6.283185307179586 : False : False : NonNegativeReals
    t : Nonnegative
        Size=1, Index=None
        Key  : Lower : Value             : Upper             : Fixed : Stale : Domain
        None :     0 : 5.895244244714266 : 6.283185307179586 : False : False : NonNegativeReals

  Objectives:
    obj : Size=1, Index=None, Active=True
        Key  : Active : Value
        None :   True : 0.17698548533292074

  Constraints:
    None
